p cnf 430 1488
-191 105 0
-191 -123 0
-191 -50 0
-191 59 0
-191 177 0
191 -105 123 50 -59 -177 0
-192 51 0
-192 62 0
-192 24 0
-192 142 0
-192 33 0
192 -51 -62 -24 -142 -33 0
-193 3 0
-193 -85 0
-193 -14 0
-193 -118 0
-193 178 0
193 -3 85 14 118 -178 0
-194 -79 0
-194 29 0
-194 136 0
-194 125 0
-194 -20 0
194 79 -29 -136 -125 20 0
-195 167 0
-195 -50 0
-195 139 0
-195 -75 0
-195 150 0
195 -167 50 -139 75 -150 0
191 192 193 194 195 0
-196 -22 0
-196 -148 0
-196 -184 0
-196 -155 0
-196 71 0
196 22 148 184 155 -71 0
-197 -90 0
-197 124 0
-197 -171 0
-197 127 0
-197 106 0
197 90 -124 171 -127 -106 0
-198 -163 0
-198 77 0
-198 -150 0
-198 -137 0
-198 -11 0
198 163 -77 150 137 11 0
-199 25 0
-199 -175 0
-199 56 0
-199 -184 0
-199 -172 0
199 -25 175 -56 184 172 0
-200 -156 0
-200 -164 0
-200 -129 0
-200 -128 0
-200 173 0
200 156 164 129 128 -173 0
196 197 198 199 200 0
-201 130 0
-201 -90 0
-201 122 0
-201 -41 0
-201 -13 0
201 -130 90 -122 41 13 0
-202 -178 0
-202 -29 0
-202 179 0
-202 167 0
-202 -117 0
202 178 29 -179 -167 117 0
-203 91 0
-203 35 0
-203 -57 0
-203 -163 0
-203 159 0
203 -91 -35 57 163 -159 0
-204 -98 0
-204 -143 0
-204 -116 0
-204 -121 0
-204 -9 0
204 98 143 116 121 9 0
-205 -158 0
-205 -59 0
-205 -56 0
-205 -77 0
-205 -114 0
205 158 59 56 77 114 0
201 202 203 204 205 0
-206 -32 0
-206 189 0
-206 113 0
-206 -2 0
-206 -101 0
206 32 -189 -113 2 101 0
-207 -59 0
-207 119 0
-207 -3 0
-207 57 0
-207 -174 0
207 59 -119 3 -57 174 0
-208 -62 0
-208 -63 0
-208 10 0
-208 -91 0
-208 39 0
208 62 63 -10 91 -39 0
-209 -139 0
-209 -170 0
-209 90 0
-209 -85 0
-209 111 0
209 139 170 -90 85 -111 0
-210 -14 0
-210 -12 0
-210 27 0
-210 -102 0
-210 -109 0
210 14 12 -27 102 109 0
206 207 208 209 210 0
-211 -115 0
-211 111 0
-211 16 0
-211 -171 0
-211 99 0
211 115 -111 -16 171 -99 0
-212 30 0
-212 22 0
-212 -148 0
-212 -33 0
-212 121 0
212 -30 -22 148 33 -121 0
-213 176 0
-213 81 0
-213 -49 0
-213 -65 0
-213 -19 0
213 -176 -81 49 65 19 0
-214 32 0
-214 31 0
-214 47 0
-214 -69 0
-214 171 0
214 -32 -31 -47 69 -171 0
-215 -120 0
-215 178 0
-215 -153 0
-215 5 0
-215 125 0
215 120 -178 153 -5 -125 0
211 212 213 214 215 0
-216 175 0
-216 -151 0
-216 -185 0
-216 123 0
-216 -115 0
216 -175 151 185 -123 115 0
-217 48 0
-217 -58 0
-217 -117 0
-217 -125 0
-217 149 0
217 -48 58 117 125 -149 0
-218 -68 0
-218 -28 0
-218 78 0
-218 62 0
-218 -144 0
218 68 28 -78 -62 144 0
-219 72 0
-219 152 0
-219 -76 0
-219 -181 0
-219 -27 0
219 -72 -152 76 181 27 0
-220 -122 0
-220 148 0
-220 28 0
-220 -24 0
-220 -172 0
220 122 -148 -28 24 172 0
216 217 218 219 220 0
-221 -13 0
-221 64 0
-221 67 0
-221 105 0
-221 -84 0
221 13 -64 -67 -105 84 0
-222 152 0
-222 82 0
-222 -32 0
-222 -112 0
-222 139 0
222 -152 -82 32 112 -139 0
-223 11 0
-223 -25 0
-223 -115 0
-223 -180 0
-223 -155 0
223 -11 25 115 180 155 0
-224 -165 0
-224 -184 0
-224 -50 0
-224 -25 0
-224 -88 0
224 165 184 50 25 88 0
-225 -180 0
-225 116 0
-225 -187 0
-225 -170 0
-225 168 0
225 180 -116 187 170 -168 0
221 222 223 224 225 0
-226 50 0
-226 83 0
-226 169 0
-226 154 0
-226 121 0
226 -50 -83 -169 -154 -121 0
-227 -139 0
-227 6 0
-227 -156 0
-227 -12 0
-227 -75 0
227 139 -6 156 12 75 0
-228 -77 0
-228 -148 0
-228 -2 0
-228 157 0
-228 49 0
228 77 148 2 -157 -49 0
-229 -79 0
-229 90 0
-229 -89 0
-229 -105 0
-229 -44 0
229 79 -90 89 105 44 0
-230 -33 0
-230 9 0
-230 183 0
-230 -136 0
-230 102 0
230 33 -9 -183 136 -102 0
226 227 228 229 230 0
-231 68 0
-231 161 0
-231 101 0
-231 -177 0
-231 -77 0
231 -68 -161 -101 177 77 0
-232 147 0
-232 116 0
-232 115 0
-232 -128 0
-232 -54 0
232 -147 -116 -115 128 54 0
-233 -45 0
-233 142 0
-233 -129 0
-233 -156 0
-233 -49 0
233 45 -142 129 156 49 0
-234 64 0
-234 -121 0
-234 107 0
-234 -81 0
-234 -35 0
234 -64 121 -107 81 35 0
-235 60 0
-235 17 0
-235 179 0
-235 -27 0
-235 -19 0
235 -60 -17 -179 27 19 0
231 232 233 234 235 0
-236 175 0
-236 -96 0
-236 -76 0
-236 -135 0
-236 -43 0
236 -175 96 76 135 43 0
-237 -48 0
-237 -190 0
-237 -87 0
-237 -162 0
-237 83 0
237 48 190 87 162 -83 0
-238 -60 0
-238 34 0
-238 171 0
-238 102 0
-238 16 0
238 60 -34 -171 -102 -16 0
-239 167 0
-239 100 0
-239 126 0
-239 -41 0
-239 -128 0
239 -167 -100 -126 41 128 0
-240 -98 0
-240 15 0
-240 -117 0
-240 75 0
-240 -59 0
240 98 -15 117 -75 59 0
236 237 238 239 240 0
-241 -143 0
-241 175 0
-241 -31 0
-241 60 0
-241 -56 0
241 143 -175 31 -60 56 0
-242 141 0
-242 -28 0
-242 84 0
-242 149 0
-242 -31 0
242 -141 28 -84 -149 31 0
-243 -128 0
-243 70 0
-243 -16 0
-243 -133 0
-243 -30 0
243 128 -70 16 133 30 0
-244 -27 0
-244 -59 0
-244 130 0
-244 -49 0
-244 58 0
244 27 59 -130 49 -58 0
-245 170 0
-245 -128 0
-245 -184 0
-245 -52 0
-245 -130 0
245 -170 128 184 52 130 0
241 242 243 244 245 0
-246 22 0
-246 147 0
-246 149 0
-246 -96 0
-246 -168 0
246 -22 -147 -149 96 168 0
-247 -148 0
-247 -132 0
-247 61 0
-247 -36 0
-247 -40 0
247 148 132 -61 36 40 0
-248 131 0
-248 -135 0
-248 -49 0
-248 11 0
-248 -57 0
248 -131 135 49 -11 57 0
-249 152 0
-249 25 0
-249 180 0
-249 -18 0
-249 -10 0
249 -152 -25 -180 18 10 0
-250 120 0
-250 13 0
-250 -157 0
-250 -154 0
-250 -18 0
250 -120 -13 157 154 18 0
246 247 248 249 250 0
-251 -151 0
-251 96 0
-251 -52 0
-251 32 0
-251 184 0
251 151 -96 52 -32 -184 0
-252 168 0
-252 -119 0
-252 -50 0
-252 -105 0
-252 132 0
252 -168 119 50 105 -132 0
-253 -171 0
-253 31 0
-253 56 0
-253 15 0
-253 -19 0
253 171 -31 -56 -15 19 0
-254 12 0
-254 112 0
-254 9 0
-254 -7 0
-254 -184 0
254 -12 -112 -9 7 184 0
-255 -130 0
-255 151 0
-255 164 0
-255 121 0
-255 -178 0
255 130 -151 -164 -121 178 0
251 252 253 254 255 0
-256 -150 0
-256 68 0
-256 -48 0
-256 -143 0
-256 153 0
256 150 -68 48 143 -153 0
-257 65 0
-257 84 0
-257 137 0
-257 151 0
-257 113 0
257 -65 -84 -137 -151 -113 0
-258 -79 0
-258 -106 0
-258 -99 0
-258 124 0
-258 119 0
258 79 106 99 -124 -119 0
-259 -128 0
-259 -165 0
-259 -15 0
-259 -97 0
-259 -183 0
259 128 165 15 97 183 0
-260 76 0
-260 10 0
-260 -61 0
-260 -123 0
-260 180 0
260 -76 -10 61 123 -180 0
256 257 258 259 260 0
-261 97 0
-261 -122 0
-261 -150 0
-261 183 0
-261 -79 0
261 -97 122 150 -183 79 0
-262 -68 0
-262 -159 0
-262 62 0
-262 53 0
-262 -166 0
262 68 159 -62 -53 166 0
-263 -56 0
-263 -24 0
-263 -18 0
-263 69 0
-263 142 0
263 56 24 18 -69 -142 0
-264 71 0
-264 -149 0
-264 -74 0
-264 -110 0
-264 38 0
264 -71 149 74 110 -38 0
-265 68 0
-265 -118 0
-265 -71 0
-265 129 0
-265 -115 0
265 -68 118 71 -129 115 0
261 262 263 264 265 0
-266 189 0
-266 -44 0
-266 -186 0
-266 130 0
-266 172 0
266 -189 44 186 -130 -172 0
-267 99 0
-267 45 0
-267 10 0
-267 124 0
-267 90 0
267 -99 -45 -10 -124 -90 0
-268 5 0
-268 -8 0
-268 -129 0
-268 -21 0
-268 83 0
268 -5 8 129 21 -83 0
-269 -179 0
-269 190 0
-269 -112 0
-269 -29 0
-269 178 0
269 179 -190 112 29 -178 0
-270 156 0
-270 128 0
-270 -70 0
-270 -189 0
-270 -65 0
270 -156 -128 70 189 65 0
266 267 268 269 270 0
-271 -66 0
-271 28 0
-271 122 0
-271 -123 0
-271 145 0
271 66 -28 -122 123 -145 0
-272 117 0
-272 -176 0
-272 -139 0
-272 -54 0
-272 -16 0
272 -117 176 139 54 16 0
-273 -66 0
-273 -51 0
-273 -145 0
-273 -5 0
-273 -62 0
273 66 51 145 5 62 0
-274 171 0
-274 91 0
-274 32 0
-274 -141 0
-274 -14 0
274 -171 -91 -32 141 14 0
-275 -131 0
-275 -169 0
-275 -159 0
-275 1 0
-275 122 0
275 131 169 159 -1 -122 0
271 272 273 274 275 0
-276 128 0
-276 32 0
-276 -28 0
-276 -100 0
-276 144 0
276 -128 -32 28 100 -144 0
-277 -118 0
-277 -124 0
-277 32 0
-277 130 0
-277 21 0
277 118 124 -32 -130 -21 0
-278 -168 0
-278 -104 0
-278 52 0
-278 33 0
-278 -1 0
278 168 104 -52 -33 1 0
-279 144 0
-279 -159 0
-279 190 0
-279 -3 0
-279 -150 0
279 -144 159 -190 3 150 0
-280 -52 0
-280 -91 0
-280 -21 0
-280 53 0
-280 64 0
280 52 91 21 -53 -64 0
276 277 278 279 280 0
-281 171 0
-281 137 0
-281 -78 0
-281 127 0
-281 153 0
281 -171 -137 78 -127 -153 0
-282 -14 0
-282 -69 0
-282 137 0
-282 -186 0
-282 133 0
282 14 69 -137 186 -133 0
-283 -36 0
-283 128 0
-283 171 0
-283 16 0
-283 190 0
283 36 -128 -171 -16 -190 0
-284 -80 0
-284 -159 0
-284 65 0
-284 -114 0
-284 -84 0
284 80 159 -65 114 84 0
-285 -166 0
-285 52 0
-285 -121 0
-285 -143 0
-285 36 0
285 166 -52 121 143 -36 0
281 282 283 284 285 0
-286 -117 0
-286 51 0
-286 -171 0
-286 -179 0
-286 -183 0
286 117 -51 171 179 183 0
-287 -151 0
-287 -142 0
-287 -183 0
-287 -97 0
-287 -96 0
287 151 142 183 97 96 0
-288 177 0
-288 144 0
-288 69 0
-288 161 0
-288 176 0
288 -177 -144 -69 -161 -176 0
-289 124 0
-289 -16 0
-289 5 0
-289 -158 0
-289 11 0
289 -124 16 -5 158 -11 0
-290 -82 0
-290 31 0
-290 -90 0
-290 -50 0
-290 174 0
290 82 -31 90 50 -174 0
286 287 288 289 290 0
-291 190 0
-291 -45 0
-291 -68 0
-291 -151 0
-291 116 0
291 -190 45 68 151 -116 0
-292 -124 0
-292 -1 0
-292 -137 0
-292 -103 0
-292 150 0
292 124 1 137 103 -150 0
-293 35 0
-293 187 0
-293 86 0
-293 32 0
-293 44 0
293 -35 -187 -86 -32 -44 0
-294 -9 0
-294 -36 0
-294 123 0
-294 -25 0
-294 -7 0
294 9 36 -123 25 7 0
-295 7 0
-295 -173 0
-295 189 0
-295 -154 0
-295 38 0
295 -7 173 -189 154 -38 0
291 292 293 294 295 0
-296 -174 0
-296 117 0
-296 84 0
-296 86 0
-296 -178 0
296 174 -117 -84 -86 178 0
-297 60 0
-297 -173 0
-297 80 0
-297 -121 0
-297 115 0
297 -60 173 -80 121 -115 0
-298 187 0
-298 44 0
-298 -72 0
-298 -186 0
-298 -57 0
298 -187 -44 72 186 57 0
-299 -159 0
-299 -189 0
-299 177 0
-299 77 0
-299 166 0
299 159 189 -177 -77 -166 0
-300 -84 0
-300 -188 0
-300 -45 0
-300 -21 0
-300 -138 0
300 84 188 45 21 138 0
296 297 298 299 300 0
-301 177 0
-301 133 0
-301 115 0
-301 -80 0
-301 102 0
301 -177 -133 -115 80 -102 0
-302 -51 0
-302 -7 0
-302 50 0
-302 53 0
-302 -77 0
302 51 7 -50 -53 77 0
-303 -127 0
-303 -146 0
-303 96 0
-303 -154 0
-303 94 0
303 127 146 -96 154 -94 0
-304 76 0
-304 -185 0
-304 22 0
-304 -35 0
-304 50 0
304 -76 185 -22 35 -50 0
-305 -110 0
-305 -42 0
-305 109 0
-305 -181 0
-305 -114 0
305 110 42 -109 181 114 0
301 302 303 304 305 0
-306 37 0
-306 103 0
-306 -75 0
-306 118 0
-306 184 0
306 -37 -103 75 -118 -184 0
-307 73 0
-307 155 0
-307 -77 0
-307 109 0
-307 -78 0
307 -73 -155 77 -109 78 0
-308 -40 0
-308 97 0
-308 98 0
-308 -9 0
-308 188 0
308 40 -97 -98 9 -188 0
-309 43 0
-309 178 0
-309 -175 0
-309 88 0
-309 -104 0
309 -43 -178 175 -88 104 0
-310 -64 0
-310 -23 0
-310 -83 0
-310 -20 0
-310 -164 0
310 64 23 83 20 164 0
306 307 308 309 310 0
-311 -81 0
-311 34 0
-311 -153 0
-311 -122 0
-311 57 0
311 81 -34 153 122 -57 0
-312 -170 0
-312 -181 0
-312 86 0
-312 50 0
-312 -95 0
312 170 181 -86 -50 95 0
-313 -189 0
-313 -25 0
-313 1 0
-313 70 0
-313 68 0
313 189 25 -1 -70 -68 0
-314 91 0
-314 31 0
-314 142 0
-314 102 0
-314 20 0
314 -91 -31 -142 -102 -20 0
-315 -90 0
-315 -115 0
-315 96 0
-315 118 0
-315 38 0
315 90 115 -96 -118 -38 0
311 312 313 314 315 0
-316 116 0
-316 -141 0
-316 -175 0
-316 -38 0
-316 9 0
316 -116 141 175 38 -9 0
-317 25 0
-317 -81 0
-317 128 0
-317 48 0
-317 174 0
317 -25 81 -128 -48 -174 0
-318 7 0
-318 35 0
-318 170 0
-318 -162 0
-318 177 0
318 -7 -35 -170 162 -177 0
-319 28 0
-319 -182 0
-319 3 0
-319 33 0
-319 59 0
319 -28 182 -3 -33 -59 0
-320 160 0
-320 -68 0
-320 -126 0
-320 47 0
-320 -75 0
320 -160 68 126 -47 75 0
316 317 318 319 320 0
-321 -144 0
-321 -35 0
-321 181 0
-321 18 0
-321 -115 0
321 144 35 -181 -18 115 0
-322 -150 0
-322 47 0
-322 -79 0
-322 115 0
-322 -85 0
322 150 -47 79 -115 85 0
-323 90 0
-323 -65 0
-323 152 0
-323 -5 0
-323 45 0
323 -90 65 -152 5 -45 0
-324 -1 0
-324 -84 0
-324 -16 0
-324 153 0
-324 -3 0
324 1 84 16 -153 3 0
-325 -112 0
-325 -100 0
-325 121 0
-325 -155 0
-325 -171 0
325 112 100 -121 155 171 0
321 322 323 324 325 0
-326 118 0
-326 179 0
-326 152 0
-326 172 0
-326 -168 0
326 -118 -179 -152 -172 168 0
-327 -123 0
-327 22 0
-327 162 0
-327 87 0
-327 -93 0
327 123 -22 -162 -87 93 0
-328 -117 0
-328 102 0
-328 -106 0
-328 -39 0
-328 -190 0
328 117 -102 106 39 190 0
-329 -158 0
-329 58 0
-329 -161 0
-329 -15 0
-329 -17 0
329 158 -58 161 15 17 0
-330 -36 0
-330 -8 0
-330 76 0
-330 139 0
-330 -88 0
330 36 8 -76 -139 88 0
326 327 328 329 330 0
-331 97 0
-331 -173 0
-331 188 0
-331 156 0
-331 -108 0
331 -97 173 -188 -156 108 0
-332 60 0
-332 -190 0
-332 -87 0
-332 93 0
-332 -57 0
332 -60 190 87 -93 57 0
-333 160 0
-333 -142 0
-333 4 0
-333 -163 0
-333 -3 0
333 -160 142 -4 163 3 0
-334 -31 0
-334 -32 0
-334 -21 0
-334 44 0
-334 -61 0
334 31 32 21 -44 61 0
-335 -12 0
-335 -15 0
-335 -149 0
-335 -10 0
-335 -112 0
335 12 15 149 10 112 0
331 332 333 334 335 0
-336 -4 0
-336 186 0
-336 -90 0
-336 23 0
-336 50 0
336 4 -186 90 -23 -50 0
-337 132 0
-337 -51 0
-337 -188 0
-337 83 0
-337 -22 0
337 -132 51 188 -83 22 0
-338 86 0
-338 -4 0
-338 -176 0
-338 37 0
-338 83 0
338 -86 4 176 -37 -83 0
-339 145 0
-339 18 0
-339 -141 0
-339 -55 0
-339 -78 0
339 -145 -18 141 55 78 0
-340 1 0
-340 -120 0
-340 115 0
-340 37 0
-340 -47 0
340 -1 120 -115 -37 47 0
336 337 338 339 340 0
-341 -48 0
-341 98 0
-341 89 0
-341 -105 0
-341 31 0
341 48 -98 -89 105 -31 0
-342 -49 0
-342 72 0
-342 -15 0
-342 45 0
-342 188 0
342 49 -72 15 -45 -188 0
-343 151 0
-343 104 0
-343 130 0
-343 -183 0
-343 -171 0
343 -151 -104 -130 183 171 0
-344 -167 0
-344 -17 0
-344 -70 0
-344 -121 0
-344 84 0
344 167 17 70 121 -84 0
-345 17 0
-345 124 0
-345 -128 0
-345 51 0
-345 -5 0
345 -17 -124 128 -51 5 0
341 342 343 344 345 0
-346 170 0
-346 22 0
-346 -93 0
-346 107 0
-346 189 0
346 -170 -22 93 -107 -189 0
-347 -185 0
-347 135 0
-347 -97 0
-347 70 0
-347 85 0
347 185 -135 97 -70 -85 0
-348 81 0
-348 -45 0
-348 76 0
-348 -46 0
-348 -71 0
348 -81 45 -76 46 71 0
-349 -19 0
-349 -148 0
-349 87 0
-349 190 0
-349 181 0
349 19 148 -87 -190 -181 0
-350 29 0
-350 126 0
-350 74 0
-350 30 0
-350 183 0
350 -29 -126 -74 -30 -183 0
346 347 348 349 350 0
-351 -138 0
-351 52 0
-351 8 0
-351 -186 0
-351 42 0
351 138 -52 -8 186 -42 0
-352 -137 0
-352 -108 0
-352 -135 0
-352 -49 0
-352 88 0
352 137 108 135 49 -88 0
-353 28 0
-353 -20 0
-353 59 0
-353 -180 0
-353 -61 0
353 -28 20 -59 180 61 0
-354 -178 0
-354 90 0
-354 -14 0
-354 46 0
-354 174 0
354 178 -90 14 -46 -174 0
-355 -81 0
-355 -27 0
-355 -124 0
-355 118 0
-355 15 0
355 81 27 124 -118 -15 0
351 352 353 354 355 0
-356 25 0
-356 -40 0
-356 133 0
-356 -66 0
-356 -189 0
356 -25 40 -133 66 189 0
-357 24 0
-357 -12 0
-357 -152 0
-357 -135 0
-357 37 0
357 -24 12 152 135 -37 0
-358 -13 0
-358 -124 0
-358 89 0
-358 -5 0
-358 -155 0
358 13 124 -89 5 155 0
-359 50 0
-359 45 0
-359 -11 0
-359 74 0
-359 -60 0
359 -50 -45 11 -74 60 0
-360 -145 0
-360 133 0
-360 14 0
-360 85 0
-360 101 0
360 145 -133 -14 -85 -101 0
356 357 358 359 360 0
-361 66 0
-361 73 0
-361 -93 0
-361 -107 0
-361 -150 0
361 -66 -73 93 107 150 0
-362 -39 0
-362 -28 0
-362 -48 0
-362 189 0
-362 51 0
362 39 28 48 -189 -51 0
-363 -152 0
-363 -136 0
-363 -129 0
-363 158 0
-363 -90 0
363 152 136 129 -158 90 0
-364 -24 0
-364 -37 0
-364 -85 0
-364 125 0
-364 91 0
364 24 37 85 -125 -91 0
-365 59 0
-365 173 0
-365 -140 0
-365 -26 0
-365 41 0
365 -59 -173 140 26 -41 0
361 362 363 364 365 0
-366 63 0
-366 -130 0
-366 119 0
-366 -128 0
-366 -129 0
366 -63 130 -119 128 129 0
-367 127 0
-367 162 0
-367 -79 0
-367 -188 0
-367 -165 0
367 -127 -162 79 188 165 0
-368 -24 0
-368 -114 0
-368 -143 0
-368 -116 0
-368 99 0
368 24 114 143 116 -99 0
-369 152 0
-369 -48 0
-369 81 0
-369 -106 0
-369 -101 0
369 -152 48 -81 106 101 0
-370 43 0
-370 -39 0
-370 -85 0
-370 181 0
-370 47 0
370 -43 39 85 -181 -47 0
366 367 368 369 370 0
-371 64 0
-371 36 0
-371 40 0
-371 3 0
-371 34 0
371 -64 -36 -40 -3 -34 0
-372 -47 0
-372 115 0
-372 107 0
-372 5 0
-372 116 0
372 47 -115 -107 -5 -116 0
-373 -139 0
-373 -30 0
-373 131 0
-373 -109 0
-373 92 0
373 139 30 -131 109 -92 0
-374 111 0
-374 157 0
-374 78 0
-374 -156 0
-374 58 0
374 -111 -157 -78 156 -58 0
-375 -128 0
-375 136 0
-375 100 0
-375 -180 0
-375 42 0
375 128 -136 -100 180 -42 0
371 372 373 374 375 0
-376 -84 0
-376 75 0
-376 -152 0
-376 109 0
-376 -20 0
376 84 -75 152 -109 20 0
-377 163 0
-377 185 0
-377 162 0
-377 -180 0
-377 -97 0
377 -163 -185 -162 180 97 0
-378 -67 0
-378 188 0
-378 -111 0
-378 24 0
-378 58 0
378 67 -188 111 -24 -58 0
-379 -57 0
-379 142 0
-379 56 0
-379 36 0
-379 -58 0
379 57 -142 -56 -36 58 0
-380 -63 0
-380 -137 0
-380 -135 0
-380 -168 0
-380 -127 0
380 63 137 135 168 127 0
376 377 378 379 380 0
-381 156 0
-381 -146 0
-381 181 0
-381 -26 0
-381 103 0
381 -156 146 -181 26 -103 0
-382 92 0
-382 -10 0
-382 -48 0
-382 -47 0
-382 -81 0
382 -92 10 48 47 81 0
-383 -90 0
-383 -17 0
-383 -11 0
-383 -156 0
-383 -53 0
383 90 17 11 156 53 0
-384 -139 0
-384 -54 0
-384 -130 0
-384 -84 0
-384 19 0
384 139 54 130 84 -19 0
-385 -10 0
-385 128 0
-385 -67 0
-385 22 0
-385 152 0
385 10 -128 67 -22 -152 0
381 382 383 384 385 0
-386 133 0
-386 153 0
-386 -32 0
-386 72 0
-386 175 0
386 -133 -153 32 -72 -175 0
-387 -47 0
-387 -170 0
-387 122 0
-387 110 0
-387 67 0
387 47 170 -122 -110 -67 0
-388 -81 0
-388 49 0
-388 -57 0
-388 144 0
-388 -84 0
388 81 -49 57 -144 84 0
-389 -66 0
-389 -121 0
-389 -187 0
-389 164 0
-389 -133 0
389 66 121 187 -164 133 0
-390 -189 0
-390 -136 0
-390 -97 0
-390 -43 0
-390 24 0
390 189 136 97 43 -24 0
386 387 388 389 390 0
-391 95 0
-391 44 0
-391 -172 0
-391 -96 0
-391 51 0
391 -95 -44 172 96 -51 0
-392 -137 0
-392 168 0
-392 -46 0
-392 50 0
-392 -165 0
392 137 -168 46 -50 165 0
-393 149 0
-393 -130 0
-393 54 0
-393 116 0
-393 122 0
393 -149 130 -54 -116 -122 0
-394 135 0
-394 83 0
-394 -62 0
-394 -78 0
-394 131 0
394 -135 -83 62 78 -131 0
-395 44 0
-395 67 0
-395 149 0
-395 -70 0
-395 50 0
395 -44 -67 -149 70 -50 0
391 392 393 394 395 0
-396 -133 0
-396 136 0
-396 157 0
-396 22 0
-396 -27 0
396 133 -136 -157 -22 27 0
-397 103 0
-397 118 0
-397 -47 0
-397 150 0
-397 -182 0
397 -103 -118 47 -150 182 0
-398 29 0
-398 144 0
-398 -162 0
-398 -42 0
-398 112 0
398 -29 -144 162 42 -112 0
-399 137 0
-399 105 0
-399 11 0
-399 43 0
-399 -46 0
399 -137 -105 -11 -43 46 0
-400 -175 0
-400 -23 0
-400 42 0
-400 30 0
-400 -130 0
400 175 23 -42 -30 130 0
396 397 398 399 400 0
-401 126 0
-401 -33 0
-401 71 0
-401 39 0
-401 123 0
401 -126 33 -71 -39 -123 0
-402 111 0
-402 -86 0
-402 33 0
-402 -5 0
-402 -4 0
402 -111 86 -33 5 4 0
-403 -190 0
-403 134 0
-403 177 0
-403 89 0
-403 -29 0
403 190 -134 -177 -89 29 0
-404 -72 0
-404 -21 0
-404 -154 0
-404 -19 0
-404 -40 0
404 72 21 154 19 40 0
-405 -149 0
-405 -129 0
-405 -25 0
-405 13 0
-405 32 0
405 149 129 25 -13 -32 0
401 402 403 404 405 0
-406 -53 0
-406 56 0
-406 -172 0
-406 35 0
-406 -48 0
406 53 -56 172 -35 48 0
-407 -8 0
-407 -165 0
-407 -50 0
-407 -123 0
-407 167 0
407 8 165 50 123 -167 0
-408 86 0
-408 -147 0
-408 -117 0
-408 142 0
-408 182 0
408 -86 147 117 -142 -182 0
-409 5 0
-409 -156 0
-409 -86 0
-409 -88 0
-409 -186 0
409 -5 156 86 88 186 0
-410 44 0
-410 47 0
-410 -151 0
-410 -36 0
-410 118 0
410 -44 -47 151 36 -118 0
406 407 408 409 410 0
-411 64 0
-411 -109 0
-411 72 0
-411 -112 0
-411 -29 0
411 -64 109 -72 112 29 0
-412 146 0
-412 -172 0
-412 118 0
-412 -98 0
-412 -76 0
412 -146 172 -118 98 76 0
-413 111 0
-413 163 0
-413 -149 0
-413 92 0
-413 -154 0
413 -111 -163 149 -92 154 0
-414 -183 0
-414 174 0
-414 95 0
-414 -141 0
-414 -7 0
414 183 -174 -95 141 7 0
-415 100 0
-415 -119 0
-415 -93 0
-415 10 0
-415 5 0
415 -100 119 93 -10 -5 0
411 412 413 414 415 0
-416 -148 0
-416 152 0
-416 -117 0
-416 45 0
-416 -69 0
416 148 -152 117 -45 69 0
-417 -102 0
-417 -186 0
-417 63 0
-417 168 0
-417 -79 0
417 102 186 -63 -168 79 0
-418 74 0
-418 -183 0
-418 -37 0
-418 -156 0
-418 182 0
418 -74 183 37 156 -182 0
-419 -128 0
-419 -118 0
-419 -48 0
-419 -53 0
-419 36 0
419 128 118 48 53 -36 0
-420 83 0
-420 95 0
-420 -133 0
-420 150 0
-420 173 0
420 -83 -95 133 -150 -173 0
416 417 418 419 420 0
-421 182 0
-421 106 0
-421 -92 0
-421 -186 0
-421 -85 0
421 -182 -106 92 186 85 0
-422 -19 0
-422 65 0
-422 17 0
-422 148 0
-422 -46 0
422 19 -65 -17 -148 46 0
-423 -148 0
-423 -66 0
-423 -79 0
-423 -77 0
-423 -68 0
423 148 66 79 77 68 0
-424 112 0
-424 188 0
-424 175 0
-424 -33 0
-424 5 0
424 -112 -188 -175 33 -5 0
-425 18 0
-425 21 0
-425 127 0
-425 178 0
-425 189 0
425 -18 -21 -127 -178 -189 0
421 422 423 424 425 0
-426 162 0
-426 -117 0
-426 -61 0
-426 -27 0
-426 -28 0
426 -162 117 61 27 28 0
-427 63 0
-427 -56 0
-427 -49 0
-427 -108 0
-427 8 0
427 -63 56 49 108 -8 0
-428 147 0
-428 -94 0
-428 37 0
-428 -80 0
-428 -188 0
428 -147 94 -37 80 188 0
-429 134 0
-429 -92 0
-429 -9 0
-429 -5 0
-429 -39 0
429 -134 92 9 5 39 0
-430 65 0
-430 140 0
-430 -8 0
-430 -126 0
-430 79 0
430 -65 -140 8 126 -79 0
426 427 428 429 430 0
